76
1 86 
2 40 106 
1 17 
1 51 
1 93 
2 70 39 
1 105 
1 58 
1 12 
3 79 113 92 
1 25 
2 46 13 
1 18 
1 48 
3 44 26 24 
3 21 22 5 
3 118 83 23 
3 67 74 98 
1 38 
1 31 
2 82 55 
3 30 87 84 
3 45 52 60 
1 73 
1 65 
1 4 
1 63 
2 11 97 
2 64 1 
2 99 76 
1 77 
1 14 
3 104 29 42 
3 108 94 71 
1 19 
1 102 
2 54 91 
2 103 90 
3 62 7 6 
3 36 8 32 
1 89 
3 9 110 111 
3 78 96 107 
3 61 47 116 
1 101 
1 85 
1 114 
1 120 
1 80 
1 50 
2 88 75 
1 15 
2 100 3 
1 81 
1 34 
1 66 
1 28 
1 33 
1 117 
1 43 
1 119 
2 112 115 
1 57 
3 72 41 95 
1 69 
1 59 
1 37 
1 27 
1 56 
2 2 20 
1 10 
2 68 109 
1 16 
1 53 
1 49 
1 35 
